c Random generated cnf formula, satisfiable: false
p cnf 10 50
-9 8 -5 0
2 9 -4 0
-8 -7 5 0
-5 8 -9 0
-10 -8 -6 0
-3 5 8 0
6 9 -5 0
8 10 -6 0
-6 -1 2 0
1 7 -4 0
7 -8 9 0
-4 -5 9 0
-4 8 -6 0
-8 6 -10 0
-9 2 -10 0
6 9 -3 0
1 6 8 0
-4 -2 -10 0
-1 -9 8 0
-10 3 2 0
-5 2 1 0
4 1 -3 0
-10 -5 6 0
-3 10 -2 0
7 -6 3 0
-8 -1 6 0
9 -2 3 0
5 4 6 0
9 -4 10 0
5 10 2 0
-2 4 10 0
9 10 -3 0
6 -9 2 0
-3 -4 -5 0
4 6 -8 0
-3 -1 2 0
-6 -10 5 0
2 -5 -9 0
3 8 2 0
-4 -5 -1 0
-3 9 -8 0
-6 -9 4 0
-1 -3 -2 0
7 -5 -2 0
-10 5 -9 0
-8 2 -5 0
-8 10 1 0
2 10 9 0
8 2 -6 0
-8 6 -7 0
